sat
(
  (define-fun inv ((x!0 Int) (x!1 Int)) Bool
    (let ((a!1 (not (and (<= (- 8) x!0)
                         (<= (- 7) x!0)
                         (<= (- 6) x!0)
                         (<= (- 5) x!0)
                         (<= (- 4) x!0)
                         (<= (- 3) x!0)
                         (<= (- 2) x!0)
                         (<= (- 1) x!0)
                         (<= 0 x!0)
                         (<= 1 x!0)
                         (<= 99 x!0)
                         (<= 100 x!0)
                         (<= 101 x!0)
                         (<= 1 x!1)
                         (not (<= 99 x!1)))))
          (a!2 (not (and (<= (- 8) x!0)
                         (<= (- 7) x!0)
                         (<= (- 6) x!0)
                         (<= (- 5) x!0)
                         (<= (- 4) x!0)
                         (<= (- 3) x!0)
                         (<= (- 2) x!0)
                         (<= (- 1) x!0)
                         (<= 0 x!0)
                         (<= 1 x!0)
                         (<= 99 x!0)
                         (<= 100 x!0)
                         (<= 101 x!0)
                         (not (<= 1 x!1)))))
          (a!3 (not (and (<= (- 8) x!0)
                         (not (<= (- 7) x!0))
                         (<= 1 x!1)
                         (<= 99 x!1)
                         (<= 100 x!1)
                         (<= 101 x!1))))
          (a!4 (not (and (not (<= (- 8) x!0))
                         (<= 1 x!1)
                         (<= 99 x!1)
                         (<= 100 x!1)
                         (<= 101 x!1))))
          (a!5 (not (and (<= (- 8) x!0)
                         (<= (- 7) x!0)
                         (not (<= (- 6) x!0))
                         (<= 1 x!1)
                         (<= 99 x!1)
                         (<= 100 x!1)
                         (<= 101 x!1))))
          (a!6 (not (and (<= (- 8) x!0)
                         (<= (- 7) x!0)
                         (<= (- 6) x!0)
                         (not (<= (- 5) x!0))
                         (<= 1 x!1)
                         (<= 99 x!1)
                         (<= 100 x!1)
                         (<= 101 x!1))))
          (a!7 (not (and (<= (- 8) x!0)
                         (<= (- 7) x!0)
                         (<= (- 6) x!0)
                         (<= (- 5) x!0)
                         (not (<= (- 4) x!0))
                         (<= 1 x!1)
                         (<= 99 x!1)
                         (<= 100 x!1)
                         (<= 101 x!1))))
          (a!8 (not (and (<= (- 8) x!0)
                         (<= (- 7) x!0)
                         (<= (- 6) x!0)
                         (<= (- 5) x!0)
                         (<= (- 4) x!0)
                         (not (<= (- 3) x!0))
                         (<= 1 x!1)
                         (<= 99 x!1)
                         (<= 100 x!1)
                         (<= 101 x!1))))
          (a!9 (not (and (<= (- 8) x!0)
                         (<= (- 7) x!0)
                         (<= (- 6) x!0)
                         (<= (- 5) x!0)
                         (<= (- 4) x!0)
                         (<= (- 3) x!0)
                         (<= (- 2) x!0)
                         (<= (- 1) x!0)
                         (not (<= 0 x!0))
                         (<= 1 x!1)
                         (<= 99 x!1)
                         (<= 100 x!1)
                         (<= 101 x!1))))
          (a!10 (not (and (<= (- 8) x!0)
                          (<= (- 7) x!0)
                          (<= (- 6) x!0)
                          (<= (- 5) x!0)
                          (<= (- 4) x!0)
                          (<= (- 3) x!0)
                          (not (<= (- 2) x!0))
                          (<= 1 x!1)
                          (<= 99 x!1)
                          (<= 100 x!1)
                          (<= 101 x!1))))
          (a!11 (not (and (<= (- 8) x!0)
                          (<= (- 7) x!0)
                          (<= (- 6) x!0)
                          (<= (- 5) x!0)
                          (<= (- 4) x!0)
                          (<= (- 3) x!0)
                          (<= (- 2) x!0)
                          (not (<= (- 1) x!0))
                          (<= 1 x!1)
                          (<= 99 x!1)
                          (<= 100 x!1)
                          (<= 101 x!1))))
          (a!12 (not (and (<= (- 8) x!0)
                          (<= (- 7) x!0)
                          (<= (- 6) x!0)
                          (<= (- 5) x!0)
                          (<= (- 4) x!0)
                          (<= (- 3) x!0)
                          (<= (- 2) x!0)
                          (<= (- 1) x!0)
                          (<= 0 x!0)
                          (not (<= 1 x!0))
                          (<= 1 x!1)
                          (<= 99 x!1)
                          (<= 100 x!1)
                          (<= 101 x!1))))
          (a!13 (not (and (<= (- 8) x!0)
                          (<= (- 7) x!0)
                          (<= (- 6) x!0)
                          (<= (- 5) x!0)
                          (<= (- 4) x!0)
                          (<= (- 3) x!0)
                          (<= (- 2) x!0)
                          (<= (- 1) x!0)
                          (<= 0 x!0)
                          (<= 1 x!0)
                          (not (<= 99 x!0))
                          (<= 1 x!1)
                          (<= 99 x!1)
                          (<= 100 x!1)
                          (<= 101 x!1))))
          (a!14 (not (and (<= (- 8) x!0)
                          (<= (- 7) x!0)
                          (<= (- 6) x!0)
                          (<= (- 5) x!0)
                          (<= (- 4) x!0)
                          (<= (- 3) x!0)
                          (<= (- 2) x!0)
                          (<= (- 1) x!0)
                          (<= 0 x!0)
                          (<= 1 x!0)
                          (<= 99 x!0)
                          (<= 100 x!0)
                          (<= 101 x!0)
                          (<= 1 x!1)
                          (<= 99 x!1)
                          (not (<= 100 x!1)))))
          (a!15 (not (and (<= (- 8) x!0)
                          (<= (- 7) x!0)
                          (<= (- 6) x!0)
                          (<= (- 5) x!0)
                          (<= (- 4) x!0)
                          (<= (- 3) x!0)
                          (<= (- 2) x!0)
                          (<= (- 1) x!0)
                          (<= 0 x!0)
                          (<= 1 x!0)
                          (<= 99 x!0)
                          (not (<= 100 x!0))
                          (<= 1 x!1)
                          (<= 99 x!1)
                          (<= 100 x!1)
                          (<= 101 x!1)))))
      (and a!1
           a!2
           a!3
           a!4
           a!5
           a!6
           a!7
           a!8
           a!9
           a!10
           a!11
           a!12
           a!13
           a!14
           (not (and (<= (- 8) x!0)
                     (<= (- 7) x!0)
                     (<= (- 6) x!0)
                     (<= (- 5) x!0)
                     (<= (- 4) x!0)
                     (<= (- 3) x!0)
                     (<= (- 2) x!0)
                     (<= (- 1) x!0)
                     (<= 0 x!0)
                     (<= 1 x!0)
                     (<= 99 x!0)
                     (<= 100 x!0)
                     (<= 101 x!0)
                     (<= 1 x!1)
                     (<= 99 x!1)
                     (<= 100 x!1)
                     (<= 101 x!1)))
           a!15)))
)
